proyfinal/src/viki/013/experimentInOfficeAgust.take6.output/a0c04dec-9752-4507-a1cc-c6568762b6a3.als.dat
{'cnf.clauses': '118081',
 'cnf.totvars': '69608',
 'conflict literals': '11',
 'conflicts': '9',
 'decisions': '592',
 'memused.mb': '16.77',
 'outcome': 'UNSAT',
 'propagations': '20275',
 'restarts': '1',
 'solver.msecs': 34,
 'task.msecs': 84}
