proyfinal/src/viki/013/experimentInOfficeAgust.take6.output/a0c04dec-9752-4507-a1cc-c6568762b6a3.als.out
Reading from standard input... Use '--help' for help.
============================[ Problem Statistics ]=============================
|                                                                             |
|  Number of variables:         69608                                         |
|  Number of clauses:          118081                                         |
|  Parse time:                   0.03 s                                       |
|                                                                             |
============================[ Search Statistics ]==============================
| Conflicts |          ORIGINAL         |          LEARNT          | Progress |
|           |    Vars  Clauses Literals |    Limit  Clauses Lit/Cl |          |
===============================================================================
===============================================================================
restarts              : 1
conflicts             : 9              (258 /sec)
decisions             : 592            (0.00 % random) (16998 /sec)
propagations          : 20275          (582147 /sec)
conflict literals     : 11             (0.00 % deleted)
Memory used           : 16.77 MB
CPU time              : 0.034828 s

UNSATISFIABLE
